(set-info :smt-lib-version 2.6)
(set-logic QF_NIA)
(set-info :source |
Generated by: Cristina Borralleras, Daniel Larraz, Albert Oliveras, Enric Rodriguez-Carbonell, Albert Rubio
Generated on: 2017-04-27
Generator: VeryMax
Application: Termination proving
Target solver: barcelogic
|)
(set-info :license "https://creativecommons.org/licenses/by/4.0/")
(set-info :category "industrial")
(set-info :status unsat)
(declare-fun Nl8arg11 () Int)
(declare-fun Nl8arg21 () Int)
(declare-fun Nl8arg31 () Int)
(declare-fun lam0n0 () Int)
(declare-fun lam0n1 () Int)
(declare-fun lam0n2 () Int)
(declare-fun lam0n3 () Int)
(declare-fun lam0n4 () Int)
(declare-fun lam0n5 () Int)
(declare-fun lam0n6 () Int)
(declare-fun lam0n7 () Int)
(declare-fun Nl8CT1 () Int)
(declare-fun lam1n0 () Int)
(declare-fun lam1n1 () Int)
(declare-fun lam1n2 () Int)
(declare-fun lam1n3 () Int)
(declare-fun lam1n4 () Int)
(declare-fun lam1n5 () Int)
(declare-fun lam1n6 () Int)
(declare-fun lam1n7 () Int)
(declare-fun lam2n0 () Int)
(declare-fun lam2n1 () Int)
(declare-fun lam2n2 () Int)
(declare-fun lam2n3 () Int)
(declare-fun lam2n4 () Int)
(declare-fun lam3n0 () Int)
(declare-fun lam3n1 () Int)
(declare-fun lam3n2 () Int)
(declare-fun lam3n3 () Int)
(declare-fun lam3n4 () Int)
(declare-fun lam4n0 () Int)
(declare-fun lam4n1 () Int)
(declare-fun lam4n2 () Int)
(declare-fun lam4n4 () Int)
(declare-fun lam4n3 () Int)
(declare-fun lam5n0 () Int)
(declare-fun lam5n1 () Int)
(declare-fun lam5n2 () Int)
(declare-fun lam5n4 () Int)
(declare-fun lam5n3 () Int)
(declare-fun lam6n0 () Int)
(declare-fun lam6n1 () Int)
(declare-fun lam6n2 () Int)
(declare-fun lam6n3 () Int)
(declare-fun lam6n4 () Int)
(declare-fun lam6n5 () Int)
(declare-fun lam6n6 () Int)
(declare-fun lam6n7 () Int)
(declare-fun lam6n8 () Int)
(declare-fun lam6n9 () Int)
(declare-fun lam7n0 () Int)
(declare-fun lam7n1 () Int)
(declare-fun lam7n2 () Int)
(declare-fun lam7n3 () Int)
(declare-fun lam7n4 () Int)
(declare-fun lam7n5 () Int)
(declare-fun lam7n6 () Int)
(declare-fun lam7n7 () Int)
(declare-fun lam7n8 () Int)
(declare-fun lam7n9 () Int)
(assert ( and ( <= ( - 13 ) Nl8arg11 ) ( <= Nl8arg11 13 ) ( <= ( - 13 ) Nl8arg21 ) ( <= Nl8arg21 13 ) ( <= ( - 13 ) Nl8arg31 ) ( <= Nl8arg31 13 ) ))
(assert ( or ( and ( >= lam0n0 0 ) ( >= lam0n1 0 ) ( >= lam0n2 0 ) ( >= lam0n3 0 ) ( >= lam0n4 0 ) ( >= lam0n5 0 ) ( >= lam0n6 0 ) ( >= lam0n7 0 ) ( > ( + ( * 1 lam0n0 ) ( * 1 lam0n1 ) ( * 1 lam0n2 ) ( * 2 lam0n5 ) ( * 13 lam0n6 ) ( * Nl8CT1 lam0n7 ) ( - 1 ) ) 0 ) ( = ( + ( * ( - 1 ) lam0n0 ) ( * ( - 1 ) lam0n3 ) ( * Nl8arg11 lam0n7 ) ) 0 ) ( = ( + ( * 1 lam0n5 ) ( * Nl8arg21 lam0n7 ) ) 0 ) ( = ( + ( * ( - 1 ) lam0n6 ) ( * Nl8arg31 lam0n7 ) ) 0 ) ( = ( + ( * ( - 1 ) lam0n1 ) ( * 1 lam0n4 ) ) 0 ) ( = ( * ( - 1 ) lam0n5 ) 0 ) ( = ( + ( * ( - 1 ) lam0n2 ) ( * 1 lam0n3 ) ( * ( - 1 ) lam0n4 ) ) 0 ) ) ( and ( >= lam1n0 0 ) ( >= lam1n1 0 ) ( >= lam1n2 0 ) ( >= lam1n3 0 ) ( >= lam1n4 0 ) ( >= lam1n5 0 ) ( >= lam1n6 0 ) ( >= lam1n7 0 ) ( > ( + ( * 1 lam1n0 ) ( * 1 lam1n1 ) ( * 1 lam1n2 ) ( * 2 lam1n5 ) ( * 13 lam1n6 ) ( * Nl8CT1 lam1n7 ) ( - 1 ( + ( + ( + Nl8CT1 ( * Nl8arg11 0 ) ) ( * Nl8arg21 1 ) ) ( * Nl8arg31 0 ) ) ) ) 0 ) ( = ( + ( * ( - 1 ) lam1n0 ) ( * ( - 1 ) lam1n3 ) ( * Nl8arg11 lam1n7 ) ) 0 ) ( = ( + ( * 1 lam1n5 ) ( * Nl8arg21 lam1n7 ) ( - ( + 0 ( * Nl8arg21 1 ) ) ) ) 0 ) ( = ( + ( * ( - 1 ) lam1n6 ) ( * Nl8arg31 lam1n7 ) ) 0 ) ( = ( + ( * ( - 1 ) lam1n1 ) ( * 1 lam1n4 ) ( - ( + 0 ( * Nl8arg11 1 ) ) ) ) 0 ) ( = ( * ( - 1 ) lam1n5 ) 0 ) ( = ( + ( * ( - 1 ) lam1n2 ) ( * 1 lam1n3 ) ( * ( - 1 ) lam1n4 ) ) 0 ) ) ))
(assert ( or ( and ( >= lam2n0 0 ) ( >= lam2n1 0 ) ( >= lam2n2 0 ) ( >= lam2n3 0 ) ( >= lam2n4 0 ) ( > ( + ( * 1 lam2n0 ) ( * 1 lam2n1 ) ( * ( - 11 ) lam2n3 ) ( * Nl8CT1 lam2n4 ) ( - 1 ) ) 0 ) ( = ( + ( * ( - 1 ) lam2n0 ) ( * ( - 1 ) lam2n2 ) ( * Nl8arg11 lam2n4 ) ) 0 ) ( = ( * Nl8arg21 lam2n4 ) 0 ) ( = ( + ( * 1 lam2n3 ) ( * Nl8arg31 lam2n4 ) ) 0 ) ( = ( + ( * ( - 1 ) lam2n1 ) ( * 1 lam2n2 ) ) 0 ) ) ( and ( >= lam3n0 0 ) ( >= lam3n1 0 ) ( >= lam3n2 0 ) ( >= lam3n3 0 ) ( >= lam3n4 0 ) ( > ( + ( * 1 lam3n0 ) ( * 1 lam3n1 ) ( * ( - 11 ) lam3n3 ) ( * Nl8CT1 lam3n4 ) ( - 1 ( + ( + Nl8CT1 ( * Nl8arg11 0 ) ) ( * Nl8arg31 1 ) ) ) ) 0 ) ( = ( + ( * ( - 1 ) lam3n0 ) ( * ( - 1 ) lam3n2 ) ( * Nl8arg11 lam3n4 ) ) 0 ) ( = ( + ( * Nl8arg21 lam3n4 ) ( - ( + 0 Nl8arg21 ) ) ) 0 ) ( = ( + ( * 1 lam3n3 ) ( * Nl8arg31 lam3n4 ) ( - ( + 0 ( * Nl8arg31 1 ) ) ) ) 0 ) ( = ( + ( * ( - 1 ) lam3n1 ) ( * 1 lam3n2 ) ( - ( + 0 ( * Nl8arg11 1 ) ) ) ) 0 ) ) ))
(assert ( or ( and ( >= lam4n0 0 ) ( >= lam4n1 0 ) ( >= lam4n2 0 ) ( >= lam4n4 0 ) ( > ( + ( * 1 lam4n0 ) ( * 1 lam4n1 ) ( * ( - 12 ) lam4n3 ) ( * Nl8CT1 lam4n4 ) ( - 1 ) ) 0 ) ( = ( + ( * ( - 1 ) lam4n0 ) ( * ( - 1 ) lam4n2 ) ( * Nl8arg11 lam4n4 ) ) 0 ) ( = ( * Nl8arg21 lam4n4 ) 0 ) ( = ( + ( * 1 lam4n3 ) ( * Nl8arg31 lam4n4 ) ) 0 ) ( = ( + ( * ( - 1 ) lam4n1 ) ( * 1 lam4n2 ) ) 0 ) ) ( and ( >= lam5n0 0 ) ( >= lam5n1 0 ) ( >= lam5n2 0 ) ( >= lam5n4 0 ) ( > ( + ( * 1 lam5n0 ) ( * 1 lam5n1 ) ( * ( - 12 ) lam5n3 ) ( * Nl8CT1 lam5n4 ) ( - 1 ( + ( + Nl8CT1 ( * Nl8arg11 0 ) ) ( * Nl8arg31 13 ) ) ) ) 0 ) ( = ( + ( * ( - 1 ) lam5n0 ) ( * ( - 1 ) lam5n2 ) ( * Nl8arg11 lam5n4 ) ) 0 ) ( = ( + ( * Nl8arg21 lam5n4 ) ( - ( + 0 Nl8arg21 ) ) ) 0 ) ( = ( + ( * 1 lam5n3 ) ( * Nl8arg31 lam5n4 ) ) 0 ) ( = ( + ( * ( - 1 ) lam5n1 ) ( * 1 lam5n2 ) ( - ( + 0 ( * Nl8arg11 1 ) ) ) ) 0 ) ) ))
(assert ( and ( and ( >= lam6n0 0 ) ( >= lam6n1 0 ) ( >= lam6n2 0 ) ( >= lam6n3 0 ) ( >= lam6n4 0 ) ( >= lam6n5 0 ) ( >= lam6n6 0 ) ( >= lam6n7 0 ) ( >= lam6n8 0 ) ( >= lam6n9 0 ) ( > ( + ( * 1 lam6n0 ) ( * 1 lam6n1 ) ( * 1 lam6n2 ) ( * 1 lam6n3 ) ( * 1 lam6n4 ) ( * ( - 1 ) lam6n5 ) ( * 13 lam6n9 ) ( - 1 ( + ( + ( + Nl8CT1 ( * Nl8arg11 0 ) ) ( * Nl8arg21 0 ) ) ( * Nl8arg31 0 ) ) ) ) 0 ) ( = ( + ( * ( - 1 ) lam6n0 ) ( * ( - 1 ) lam6n6 ) ) 0 ) ( = ( * ( - 1 ) lam6n9 ) 0 ) ( = ( + ( * ( - 1 ) lam6n1 ) ( * 1 lam6n6 ) ( * ( - 1 ) lam6n7 ) ) 0 ) ( = ( + ( * ( - 1 ) lam6n2 ) ( * 1 lam6n7 ) ( * ( - 1 ) lam6n8 ) ) 0 ) ( = ( * 1 lam6n5 ) 0 ) ( = ( + ( * ( - 1 ) lam6n3 ) ( * 1 lam6n8 ) ( - ( + 0 ( * Nl8arg11 1 ) ) ) ) 0 ) ( = ( * ( - 1 ) lam6n4 ) 0 ) ) ( and ( >= lam7n0 0 ) ( >= lam7n1 0 ) ( >= lam7n2 0 ) ( >= lam7n3 0 ) ( >= lam7n4 0 ) ( >= lam7n5 0 ) ( >= lam7n6 0 ) ( >= lam7n7 0 ) ( >= lam7n8 0 ) ( >= lam7n9 0 ) ( > ( + ( * 1 lam7n0 ) ( * 1 lam7n1 ) ( * 1 lam7n2 ) ( * 1 lam7n3 ) ( * 1 lam7n4 ) ( * ( - 1 ) lam7n5 ) ( * 13 lam7n9 ) ( - 1 ( + ( + ( + Nl8CT1 ( * Nl8arg11 0 ) ) ( * Nl8arg21 0 ) ) ( * Nl8arg31 0 ) ) ) ) 0 ) ( = ( + ( * ( - 1 ) lam7n0 ) ( * ( - 1 ) lam7n6 ) ) 0 ) ( = ( * ( - 1 ) lam7n5 ) 0 ) ( = ( * ( - 1 ) lam7n9 ) 0 ) ( = ( + ( * ( - 1 ) lam7n1 ) ( * 1 lam7n6 ) ( * ( - 1 ) lam7n7 ) ) 0 ) ( = ( + ( * ( - 1 ) lam7n2 ) ( * 1 lam7n7 ) ( * ( - 1 ) lam7n8 ) ) 0 ) ( = ( * 1 lam7n5 ) 0 ) ( = ( + ( * ( - 1 ) lam7n3 ) ( * 1 lam7n8 ) ( - ( + 0 ( * Nl8arg11 1 ) ) ) ) 0 ) ( = ( * ( - 1 ) lam7n4 ) 0 ) ) ))
(assert ( or ( and ( >= lam0n0 0 ) ( >= lam0n1 0 ) ( >= lam0n2 0 ) ( >= lam0n3 0 ) ( >= lam0n4 0 ) ( >= lam0n5 0 ) ( >= lam0n6 0 ) ( >= lam0n7 0 ) ( > ( + ( * 1 lam0n0 ) ( * 1 lam0n1 ) ( * 1 lam0n2 ) ( * 2 lam0n5 ) ( * 13 lam0n6 ) ( * Nl8CT1 lam0n7 ) ( - 1 ) ) 0 ) ( = ( + ( * ( - 1 ) lam0n0 ) ( * ( - 1 ) lam0n3 ) ( * Nl8arg11 lam0n7 ) ) 0 ) ( = ( + ( * 1 lam0n5 ) ( * Nl8arg21 lam0n7 ) ) 0 ) ( = ( + ( * ( - 1 ) lam0n6 ) ( * Nl8arg31 lam0n7 ) ) 0 ) ( = ( + ( * ( - 1 ) lam0n1 ) ( * 1 lam0n4 ) ) 0 ) ( = ( * ( - 1 ) lam0n5 ) 0 ) ( = ( + ( * ( - 1 ) lam0n2 ) ( * 1 lam0n3 ) ( * ( - 1 ) lam0n4 ) ) 0 ) ) ( and ( >= lam2n0 0 ) ( >= lam2n1 0 ) ( >= lam2n2 0 ) ( >= lam2n3 0 ) ( >= lam2n4 0 ) ( > ( + ( * 1 lam2n0 ) ( * 1 lam2n1 ) ( * ( - 11 ) lam2n3 ) ( * Nl8CT1 lam2n4 ) ( - 1 ) ) 0 ) ( = ( + ( * ( - 1 ) lam2n0 ) ( * ( - 1 ) lam2n2 ) ( * Nl8arg11 lam2n4 ) ) 0 ) ( = ( * Nl8arg21 lam2n4 ) 0 ) ( = ( + ( * 1 lam2n3 ) ( * Nl8arg31 lam2n4 ) ) 0 ) ( = ( + ( * ( - 1 ) lam2n1 ) ( * 1 lam2n2 ) ) 0 ) ) ( and ( >= lam4n0 0 ) ( >= lam4n1 0 ) ( >= lam4n2 0 ) ( >= lam4n4 0 ) ( > ( + ( * 1 lam4n0 ) ( * 1 lam4n1 ) ( * ( - 12 ) lam4n3 ) ( * Nl8CT1 lam4n4 ) ( - 1 ) ) 0 ) ( = ( + ( * ( - 1 ) lam4n0 ) ( * ( - 1 ) lam4n2 ) ( * Nl8arg11 lam4n4 ) ) 0 ) ( = ( * Nl8arg21 lam4n4 ) 0 ) ( = ( + ( * 1 lam4n3 ) ( * Nl8arg31 lam4n4 ) ) 0 ) ( = ( + ( * ( - 1 ) lam4n1 ) ( * 1 lam4n2 ) ) 0 ) ) ))
(check-sat)
(exit)
